c uprop, v00.0, 
c reading from data/prog879.c.cnf
c done reading: 0.002805
p cnf 177 827
-84 -102 0
84 102 0
-79 102 0
79 -102 0
84 -96 0
-94 -96 0
-84 94 96 0
-84 -89 94 0
84 -89 -94 0
84 89 94 0
-84 89 -94 0
-85 96 0
-82 -85 0
82 85 -96 0
-81 82 -96 0
-81 -82 96 0
81 82 96 0
81 -82 -96 0
-80 85 0
-77 -80 0
77 80 -85 0
-75 77 -85 0
-75 -77 85 0
75 77 85 0
75 -77 -85 0
80 -100 0
-98 -100 0
-80 98 100 0
-80 98 -104 0
80 -98 -104 0
80 98 104 0
-80 -98 104 0
100 -105 0
-91 -105 0
91 -100 105 0
91 -100 -106 0
-91 100 -106 0
91 100 106 0
-91 -100 106 0
105 -107 0
-87 -107 0
87 -105 107 0
87 -105 -108 0
-87 105 -108 0
87 105 108 0
-87 -105 108 0
94 -109 0
-94 109 0
-82 -102 110 0
82 102 -110 0
82 -110 0
102 -110 0
82 -110 -111 0
102 -110 -111 0
-110 -111 0
-82 110 111 0
-102 110 111 0
82 102 -111 0
-77 -94 112 0
-77 -110 112 0
-94 -110 112 0
77 94 -112 0
77 110 -112 0
94 110 -112 0
77 -112 -113 0
94 -112 -113 0
110 -112 -113 0
-77 112 113 0
-94 112 113 0
-110 112 113 0
-77 -94 -110 113 0
77 94 110 -113 0
-82 -98 114 0
-98 -112 114 0
-82 -112 114 0
82 98 -114 0
98 112 -114 0
82 112 -114 0
98 -114 -115 0
82 -114 -115 0
112 -114 -115 0
-98 114 115 0
-82 114 115 0
-112 114 115 0
-82 -98 -112 115 0
82 98 112 -115 0
-77 -91 116 0
-91 -114 116 0
-77 -114 116 0
77 91 -116 0
91 114 -116 0
77 114 -116 0
-74 91 -116 0
-74 77 -116 0
-74 114 -116 0
74 -91 116 0
74 -77 116 0
74 -114 116 0
74 -77 -91 -114 0
-74 77 91 114 0
73 -87 -98 0
73 -87 -116 0
73 -98 -116 0
-73 87 98 0
-73 87 116 0
-73 98 116 0
-72 -73 87 0
-72 -73 98 0
-72 -73 116 0
72 73 -87 0
72 73 -98 0
72 73 -116 0
72 -87 -98 -116 0
-72 87 98 116 0
-71 91 0
-71 73 0
71 -73 -91 0
-70 -73 -91 0
-70 73 91 0
70 73 -91 0
70 -73 91 0
87 -101 0
71 -101 0
-71 -87 101 0
-71 -87 -93 0
71 87 -93 0
71 -87 93 0
-71 87 93 0
-76 111 0
76 -111 0
97 -102 -113 0
-97 102 113 0
-97 113 0
-97 102 0
-90 -97 113 0
-90 -97 102 0
-90 -97 0
90 97 -113 0
90 97 -102 0
-90 102 113 0
86 -94 -115 0
86 -97 -115 0
86 -94 -97 0
-86 94 115 0
-86 97 115 0
-86 94 97 0
-69 -86 115 0
-69 -86 94 0
-69 -86 97 0
69 86 -115 0
69 86 -94 0
69 86 -97 0
69 -94 -97 -115 0
-69 94 97 115 0
68 -74 -82 0
68 -74 -86 0
68 -82 -86 0
-68 74 82 0
-68 74 86 0
-68 82 86 0
-67 -68 74 0
-67 -68 82 0
-67 -68 86 0
67 68 -74 0
67 68 -82 0
67 68 -86 0
67 -74 -82 -86 0
-67 74 82 86 0
66 -72 -77 0
66 -68 -72 0
66 -68 -77 0
-66 72 77 0
-66 68 72 0
-66 68 77 0
-65 -66 72 0
-65 -66 77 0
-65 -66 68 0
65 66 -72 0
65 66 -77 0
65 66 -68 0
65 -68 -72 -77 0
-65 68 72 77 0
64 -70 -98 0
64 -66 -70 0
64 -66 -98 0
-64 70 98 0
-64 66 70 0
-64 66 98 0
-63 -64 70 0
-63 -64 98 0
-63 -64 66 0
63 64 -70 0
63 64 -98 0
63 64 -66 0
63 -66 -70 -98 0
-63 66 70 98 0
62 -91 -93 0
62 -64 -93 0
62 -64 -91 0
-62 91 93 0
-62 64 93 0
-62 64 91 0
-61 -62 93 0
-61 -62 91 0
-61 -62 64 0
61 62 -93 0
61 62 -91 0
61 62 -64 0
61 -64 -91 -93 0
-61 64 91 93 0
60 -87 -101 0
60 -62 -101 0
60 -62 -87 0
-60 87 101 0
-60 62 101 0
-60 62 87 0
-59 -60 101 0
-59 -60 87 0
-59 -60 62 0
59 60 -101 0
59 60 -87 0
59 60 -62 0
59 -62 -87 -101 0
-59 62 87 101 0
-58 90 0
58 -90 0
57 -69 -102 0
-57 69 102 0
-57 69 0
-57 102 0
-56 -57 69 0
-56 -57 102 0
-56 -57 0
56 57 -69 0
56 57 -102 0
-56 69 102 0
55 -67 -94 0
55 -57 -67 0
55 -57 -94 0
-55 67 94 0
-55 57 67 0
-55 57 94 0
-54 -55 67 0
-54 -55 94 0
-54 -55 57 0
54 55 -67 0
54 55 -94 0
54 55 -57 0
54 -57 -67 -94 0
-54 57 67 94 0
53 -65 -82 0
53 -55 -65 0
53 -55 -82 0
-53 65 82 0
-53 55 65 0
-53 55 82 0
-52 -53 65 0
-52 -53 82 0
-52 -53 55 0
52 53 -65 0
52 53 -82 0
52 53 -55 0
52 -55 -65 -82 0
-52 55 65 82 0
51 -63 -77 0
51 -53 -63 0
51 -53 -77 0
-51 63 77 0
-51 53 63 0
-51 53 77 0
-51 63 -117 0
-51 77 -117 0
-51 53 -117 0
51 -63 117 0
51 -77 117 0
51 -53 117 0
-53 -63 -77 117 0
53 63 77 -117 0
-61 -98 118 0
-51 -61 118 0
-51 -98 118 0
61 98 -118 0
51 61 -118 0
51 98 -118 0
61 -118 -119 0
98 -118 -119 0
51 -118 -119 0
-61 118 119 0
-98 118 119 0
-51 118 119 0
-51 -61 -98 119 0
51 61 98 -119 0
-59 -91 120 0
-59 -118 120 0
-91 -118 120 0
59 91 -120 0
59 118 -120 0
91 118 -120 0
59 -120 -121 0
91 -120 -121 0
118 -120 -121 0
-59 120 121 0
-91 120 121 0
-118 120 121 0
-59 -91 -118 121 0
59 91 118 -121 0
-60 -87 122 0
-60 -120 122 0
-87 -120 122 0
60 87 -122 0
60 120 -122 0
87 120 -122 0
60 -122 -123 0
87 -122 -123 0
120 -122 -123 0
-60 122 123 0
-87 122 123 0
-120 122 123 0
-60 -87 -120 123 0
60 87 120 -123 0
56 -124 0
-56 124 0
-54 -102 125 0
54 102 -125 0
54 -125 0
102 -125 0
54 -125 -126 0
102 -125 -126 0
-125 -126 0
-54 125 126 0
-102 125 126 0
54 102 -126 0
-52 -94 127 0
-52 -125 127 0
-94 -125 127 0
52 94 -127 0
52 125 -127 0
94 125 -127 0
52 -127 -128 0
94 -127 -128 0
125 -127 -128 0
-52 127 128 0
-94 127 128 0
-125 127 128 0
-52 -94 -125 128 0
52 94 125 -128 0
-82 -117 129 0
-117 -127 129 0
-82 -127 129 0
82 117 -129 0
117 127 -129 0
82 127 -129 0
117 -129 -130 0
82 -129 -130 0
127 -129 -130 0
-117 129 130 0
-82 129 130 0
-127 129 130 0
-82 -117 -127 130 0
82 117 127 -130 0
-77 -119 131 0
-119 -129 131 0
-77 -129 131 0
77 119 -131 0
119 129 -131 0
77 129 -131 0
119 -131 -132 0
77 -131 -132 0
129 -131 -132 0
-119 131 132 0
-77 131 132 0
-129 131 132 0
-77 -119 -129 132 0
77 119 129 -132 0
-98 -121 133 0
-121 -131 133 0
-98 -131 133 0
98 121 -133 0
121 131 -133 0
98 131 -133 0
121 -133 -134 0
98 -133 -134 0
131 -133 -134 0
-121 133 134 0
-98 133 134 0
-131 133 134 0
-98 -121 -131 134 0
98 121 131 -134 0
-91 -123 135 0
-123 -133 135 0
-91 -133 135 0
91 123 -135 0
123 133 -135 0
91 133 -135 0
123 -135 -136 0
91 -135 -136 0
133 -135 -136 0
-123 135 136 0
-91 135 136 0
-133 135 136 0
-91 -123 -133 136 0
91 123 133 -136 0
-87 -122 137 0
-122 -135 137 0
-87 -135 137 0
87 122 -137 0
122 135 -137 0
87 135 -137 0
122 -137 -138 0
87 -137 -138 0
135 -137 -138 0
-122 137 138 0
-87 137 138 0
-135 137 138 0
-87 -122 -135 138 0
87 122 135 -138 0
-102 -139 0
102 139 0
102 -140 0
-102 140 0
139 -141 0
-109 -141 0
109 -139 141 0
109 -139 -142 0
-109 139 -142 0
109 139 142 0
-109 -139 142 0
141 -143 0
-76 -143 0
76 -141 143 0
76 -141 -144 0
-76 141 -144 0
76 141 144 0
-76 -141 144 0
143 -145 0
-58 -145 0
58 -143 145 0
58 -143 -146 0
-58 143 -146 0
58 143 146 0
-58 -143 146 0
145 -147 0
-124 -147 0
124 -145 147 0
124 -145 -148 0
-124 145 -148 0
124 145 148 0
-124 -145 148 0
147 -149 0
-126 -149 0
126 -147 149 0
126 -147 -150 0
-126 147 -150 0
126 147 150 0
-126 -147 150 0
149 -151 0
-128 -151 0
128 -149 151 0
128 -149 -152 0
-128 149 -152 0
128 149 152 0
-128 -149 152 0
151 -153 0
-130 -153 0
130 -151 153 0
130 -151 -154 0
-130 151 -154 0
130 151 154 0
-130 -151 154 0
153 -155 0
-132 -155 0
132 -153 155 0
132 -153 -156 0
-132 153 -156 0
132 153 156 0
-132 -153 156 0
-103 155 0
-103 -134 0
103 134 -155 0
-95 134 -155 0
-95 -134 155 0
95 134 155 0
95 -134 -155 0
-83 103 0
-83 -136 0
83 -103 136 0
-78 -103 136 0
-78 103 -136 0
78 103 136 0
78 -103 -136 0
83 -99 0
-99 -138 0
-83 99 138 0
-83 -92 138 0
83 -92 -138 0
83 92 138 0
-83 92 -138 0
-88 99 0
-88 -137 0
88 -99 137 0
-99 137 -157 0
99 -137 -157 0
99 137 157 0
-99 -137 157 0
-158 -159 0
-159 -160 0
158 159 160 0
158 160 -161 0
-158 -160 -161 0
-158 160 161 0
158 -160 161 0
159 -163 0
-162 -163 0
-159 162 163 0
-159 162 -165 0
159 -162 -165 0
159 162 165 0
-159 -162 165 0
163 -167 0
-164 -167 0
-163 164 167 0
-163 164 -169 0
163 -164 -169 0
163 164 169 0
-163 -164 169 0
167 -171 0
-166 -171 0
166 -167 171 0
166 -167 -172 0
-166 167 -172 0
166 167 172 0
-166 -167 172 0
171 -173 0
-168 -173 0
168 -171 173 0
168 -171 -174 0
-168 171 -174 0
168 171 174 0
-168 -171 174 0
173 -175 0
-170 -175 0
170 -173 175 0
170 -173 -176 0
-170 173 -176 0
170 173 176 0
-170 -173 176 0
175 -177 0
-50 -177 0
50 -175 177 0
-49 50 -175 0
-49 -50 175 0
49 50 175 0
49 -50 -175 0
-48 162 0
-48 158 0
48 -158 -162 0
-47 -158 -162 0
-47 158 162 0
47 158 -162 0
47 -158 162 0
46 -160 -164 0
46 -48 -164 0
46 -48 -160 0
-46 160 164 0
-46 48 164 0
-46 48 160 0
-45 -46 164 0
-45 -46 160 0
-45 -46 48 0
45 46 -164 0
45 46 -160 0
45 46 -48 0
45 -48 -160 -164 0
-45 48 160 164 0
44 -162 -166 0
44 -46 -166 0
44 -46 -162 0
-44 162 166 0
-44 46 166 0
-44 46 162 0
-43 -44 166 0
-43 -44 162 0
-43 -44 46 0
43 44 -166 0
43 44 -162 0
43 44 -46 0
43 -46 -162 -166 0
-43 46 162 166 0
42 -164 -168 0
42 -44 -168 0
42 -44 -164 0
-42 164 168 0
-42 44 168 0
-42 44 164 0
-41 -42 168 0
-41 -42 164 0
-41 -42 44 0
41 42 -168 0
41 42 -164 0
41 42 -44 0
41 -44 -164 -168 0
-41 44 164 168 0
40 -166 -170 0
40 -42 -170 0
40 -42 -166 0
-40 166 170 0
-40 42 170 0
-40 42 166 0
-39 -40 170 0
-39 -40 166 0
-39 -40 42 0
39 40 -170 0
39 40 -166 0
39 40 -42 0
39 -42 -166 -170 0
-39 42 166 170 0
38 -50 -168 0
38 -40 -50 0
38 -40 -168 0
-38 50 168 0
-38 40 50 0
-38 40 168 0
-37 -38 50 0
-37 -38 168 0
-37 -38 40 0
37 38 -50 0
37 38 -168 0
37 38 -40 0
37 -40 -50 -168 0
-37 40 50 168 0
-36 170 0
-36 38 0
36 -38 -170 0
-35 -38 -170 0
-35 38 170 0
35 38 -170 0
35 -38 170 0
-34 50 0
-34 36 0
34 -36 -50 0
-33 -36 -50 0
-33 36 50 0
33 36 -50 0
33 -36 50 0
-32 -158 0
-32 -160 0
32 158 160 0
-31 158 160 0
-31 -158 -160 0
31 -158 160 0
31 158 -160 0
-30 32 0
-30 -47 0
30 -32 47 0
-29 -32 47 0
-29 32 -47 0
29 32 47 0
29 -32 -47 0
-28 30 0
-28 -45 0
28 -30 45 0
-27 -30 45 0
-27 30 -45 0
27 30 45 0
27 -30 -45 0
-26 28 0
-26 -43 0
26 -28 43 0
-25 -28 43 0
-25 28 -43 0
25 28 43 0
25 -28 -43 0
-24 26 0
-24 -41 0
24 -26 41 0
-23 -26 41 0
-23 26 -41 0
23 26 41 0
23 -26 -41 0
-22 24 0
-22 -39 0
22 -24 39 0
-21 -24 39 0
-21 24 -39 0
21 24 39 0
21 -24 -39 0
-20 22 0
-20 -37 0
20 -22 37 0
-19 -22 37 0
-19 22 -37 0
19 22 37 0
19 -22 -37 0
-18 20 0
-18 -35 0
18 -20 35 0
-17 -20 35 0
-17 20 -35 0
17 20 35 0
17 -20 -35 0
-16 18 0
-16 -33 0
16 -18 33 0
-15 -18 33 0
-15 18 -33 0
15 18 33 0
15 -18 -33 0
-14 16 0
-14 -34 0
14 -16 34 0
-13 -16 34 0
-13 16 -34 0
13 16 34 0
13 -16 -34 0
-12 102 0
-12 158 0
12 -102 -158 0
-102 -158 0
102 158 0
11 -109 -160 0
11 -12 -109 0
11 -12 -160 0
-11 109 160 0
-11 12 109 0
-11 12 160 0
11 -109 0
11 -160 0
11 -12 0
-12 -109 -160 0
10 -47 -76 0
10 -11 -76 0
10 -11 -47 0
-10 47 76 0
-10 11 76 0
-10 11 47 0
-10 76 0
-10 47 0
-10 11 0
11 47 76 0
9 -45 -58 0
9 -10 -58 0
9 -10 -45 0
-9 45 58 0
-9 10 58 0
-9 10 45 0
-9 58 0
-9 45 0
-9 10 0
10 45 58 0
8 -43 -124 0
8 -9 -124 0
8 -9 -43 0
-8 43 124 0
-8 9 124 0
-8 9 43 0
-8 124 0
-8 43 0
-8 9 0
9 43 124 0
7 -41 -126 0
7 -8 -126 0
7 -8 -41 0
-7 41 126 0
-7 8 126 0
-7 8 41 0
7 -126 0
7 -41 0
7 -8 0
-8 -41 -126 0
6 -39 -128 0
6 -7 -128 0
6 -7 -39 0
-6 39 128 0
-6 7 128 0
-6 7 39 0
6 -128 0
6 -39 0
6 -7 0
-7 -39 -128 0
5 -37 -130 0
5 -6 -130 0
5 -6 -37 0
-5 37 130 0
-5 6 130 0
-5 6 37 0
5 -130 0
5 -37 0
5 -6 0
-6 -37 -130 0
4 -35 -132 0
4 -5 -132 0
4 -5 -35 0
-4 35 132 0
-4 5 132 0
-4 5 35 0
4 -132 0
4 -35 0
4 -5 0
-5 -35 -132 0
3 -33 -134 0
3 -4 -134 0
3 -4 -33 0
-3 33 134 0
-3 4 134 0
-3 4 33 0
3 -134 0
3 -33 0
3 -4 0
-4 -33 -134 0
2 -34 -136 0
2 -3 -136 0
2 -3 -34 0
-2 34 136 0
-2 3 136 0
-2 3 34 0
2 -136 0
2 -34 0
2 -3 0
-3 -34 -136 0
-1 138 0
-1 2 0
1 -2 -138 0
2 -138 0
-2 138 0
-1 -137 0
1 -137 0
-1 137 0
